32      4       
10      10      10      10      
0       0       0       0       0       1       2       
9       1       1       0       1       1       3       
5       8       4       1       0       1       4       
8       5       1       2       0       1       5       
8       3       0       3       4       6       6       7       8       9       10      11      
4       6       3       4       0       3       12      13      14      
10      1       0       2       7       3       12      13      14      
6       3       0       3       3       3       12      13      14      
3       2       2       0       6       2       12      13      
3       1       7       0       3       2       12      13      
8       0       3       5       3       2       12      13      
8       0       3       4       4       1       15      
8       5       9       0       5       1       15      
4       0       5       5       3       1       15      
9       0       4       5       4       1       16      
3       5       5       6       0       1       17      
6       0       6       3       4       1       18      
5       4       5       4       0       1       19      
9       3       4       3       0       1       20      
8       7       6       0       6       4       21      22      23      24      
4       7       4       0       4       4       25      26      27      28      
6       7       2       0       3       4       25      26      27      28      
3       3       2       3       0       3       25      27      28      
6       2       3       0       4       3       25      26      28      
2       1       0       7       6       3       29      30      31      
6       0       6       2       5       3       29      30      31      
2       0       4       2       2       3       29      30      31      
3       0       3       4       4       2       29      30      
2       5       0       6       3       1       32      
8       5       0       7       5       1       32      
9       0       4       7       3       1       32      
0       0       0       0       0       0       
